104
0 72 54 78 16 69 17 51 21 27 
25 15 80 5 56 84 35 28 33 45 
97 19 64 40 1 38 53 37 93 74 
71 60 29 31 68 91 4 39 81 20 
76 18 11 62 87 65 32 89 82 103 
77 59 99 12 66 22 63 30 102 58 
8 3 98 34 47 44 46 50 67 75 
6 83 24 49 2 9 85 43 96 48 
10 57 52 88 36 70 61 92 79 95 
100 55 13 90 7 23 86 14 101 42 
94 26 73 41 
